# Objective value = 5.8373891747783489e+02
x0_1 1
x0_2 1
x0_3 1
x0_4 1
x0_5 1
x0_6 1
x0_7 1
x0_8 1
x0_9 1
x0_10 0
x0_11 0
x0_12 0
x0_13 0
x0_14 0
x0_15 0
x0_16 0
x0_17 0
x0_18 0
x0_19 0
x0_20 0
x0_21 0
x0_22 0
x0_23 0
x0_24 0
x0_25 0
x0_26 0
x0_27 0
x0_28 0
x0_29 0
x0_30 0
x0_31 0
x0_32 0
x0_33 0
x0_34 0
x0_35 0
x0_36 0
x0_37 0
x0_38 0
x0_39 0
x0_40 0
x0_41 0
x0_42 0
x0_43 0
x0_44 0
x0_45 0
x0_46 0
x0_47 0
x0_48 0
x0_49 0
x0_50 0
x0_51 0
x0_52 0
x0_53 0
x0_54 0
x0_55 0
x0_56 0
x0_57 0
x0_58 0
x0_59 0
x0_60 0
x0_61 0
x0_62 0
x0_63 0
x0_64 0
x0_65 0
x0_66 0
x0_67 0
x0_68 0
x0_69 0
x0_70 0
x0_71 0
x0_72 0
x0_73 0
x0_74 0
x0_75 0
x0_76 0
x1_2 1
x1_3 1
x1_4 1
x1_5 1
x1_6 1
x1_7 1
x1_8 1
x1_9 1
x1_10 0
x1_11 0
x1_12 0
x1_13 0
x1_14 0
x1_15 0
x1_16 0
x1_17 0
x1_18 0
x1_19 0
x1_20 0
x1_21 0
x1_22 0
x1_23 0
x1_24 0
x1_25 0
x1_26 0
x1_27 0
x1_28 0
x1_29 0
x1_30 0
x1_31 0
x1_32 0
x1_33 0
x1_34 0
x1_35 0
x1_36 0
x1_37 0
x1_38 0
x1_39 0
x1_40 0
x1_41 0
x1_42 0
x1_43 0
x1_44 0
x1_45 0
x1_46 0
x1_47 0
x1_48 0
x1_49 0
x1_50 0
x1_51 0
x1_52 0
x1_53 0
x1_54 0
x1_55 0
x1_56 0
x1_57 0
x1_58 0
x1_59 0
x1_60 0
x1_61 0
x1_62 0
x1_63 0
x1_64 0
x1_65 0
x1_66 0
x1_67 0
x1_68 0
x1_69 0
x1_70 0
x1_71 0
x1_72 0
x1_73 0
x1_74 0
x1_75 0
x1_76 0
x2_3 1
x2_4 1
x2_5 1
x2_6 1
x2_7 1
x2_8 1
x2_9 1
x2_10 0
x2_11 0
x2_12 0
x2_13 0
x2_14 0
x2_15 0
x2_16 0
x2_17 0
x2_18 0
x2_19 0
x2_20 0
x2_21 0
x2_22 0
x2_23 0
x2_24 0
x2_25 0
x2_26 0
x2_27 0
x2_28 0
x2_29 0
x2_30 0
x2_31 0
x2_32 0
x2_33 0
x2_34 0
x2_35 0
x2_36 0
x2_37 0
x2_38 0
x2_39 0
x2_40 0
x2_41 0
x2_42 0
x2_43 0
x2_44 0
x2_45 0
x2_46 0
x2_47 0
x2_48 0
x2_49 0
x2_50 0
x2_51 0
x2_52 0
x2_53 0
x2_54 0
x2_55 0
x2_56 0
x2_57 0
x2_58 0
x2_59 0
x2_60 0
x2_61 0
x2_62 0
x2_63 0
x2_64 0
x2_65 0
x2_66 0
x2_67 0
x2_68 0
x2_69 0
x2_70 0
x2_71 0
x2_72 0
x2_73 0
x2_74 0
x2_75 0
x2_76 0
x3_4 1
x3_5 1
x3_6 1
x3_7 1
x3_8 1
x3_9 1
x3_10 0
x3_11 0
x3_12 0
x3_13 0
x3_14 0
x3_15 0
x3_16 0
x3_17 0
x3_18 0
x3_19 0
x3_20 0
x3_21 0
x3_22 0
x3_23 0
x3_24 0
x3_25 0
x3_26 0
x3_27 0
x3_28 0
x3_29 0
x3_30 0
x3_31 0
x3_32 0
x3_33 0
x3_34 0
x3_35 0
x3_36 0
x3_37 0
x3_38 0
x3_39 0
x3_40 0
x3_41 0
x3_42 0
x3_43 0
x3_44 0
x3_45 0
x3_46 0
x3_47 0
x3_48 0
x3_49 0
x3_50 0
x3_51 0
x3_52 0
x3_53 0
x3_54 0
x3_55 0
x3_56 0
x3_57 0
x3_58 0
x3_59 0
x3_60 0
x3_61 0
x3_62 0
x3_63 0
x3_64 0
x3_65 0
x3_66 0
x3_67 0
x3_68 0
x3_69 0
x3_70 0
x3_71 0
x3_72 0
x3_73 0
x3_74 0
x3_75 0
x3_76 0
x4_5 1
x4_6 1
x4_7 1
x4_8 1
x4_9 1
x4_10 0
x4_11 0
x4_12 0
x4_13 0
x4_14 0
x4_15 0
x4_16 0
x4_17 0
x4_18 0
x4_19 0
x4_20 0
x4_21 0
x4_22 0
x4_23 0
x4_24 0
x4_25 0
x4_26 0
x4_27 0
x4_28 0
x4_29 0
x4_30 0
x4_31 0
x4_32 0
x4_33 0
x4_34 0
x4_35 0
x4_36 0
x4_37 0
x4_38 0
x4_39 0
x4_40 0
x4_41 0
x4_42 0
x4_43 0
x4_44 0
x4_45 0
x4_46 0
x4_47 0
x4_48 0
x4_49 0
x4_50 0
x4_51 0
x4_52 0
x4_53 0
x4_54 0
x4_55 0
x4_56 0
x4_57 0
x4_58 0
x4_59 0
x4_60 0
x4_61 0
x4_62 0
x4_63 0
x4_64 0
x4_65 0
x4_66 0
x4_67 0
x4_68 0
x4_69 0
x4_70 0
x4_71 0
x4_72 0
x4_73 0
x4_74 0
x4_75 0
x4_76 0
x5_6 1
x5_7 1
x5_8 1
x5_9 1
x5_10 0
x5_11 0
x5_12 0
x5_13 0
x5_14 0
x5_15 0
x5_16 0
x5_17 0
x5_18 0
x5_19 0
x5_20 0
x5_21 0
x5_22 0
x5_23 0
x5_24 0
x5_25 0
x5_26 0
x5_27 0
x5_28 0
x5_29 0
x5_30 0
x5_31 0
x5_32 0
x5_33 0
x5_34 0
x5_35 0
x5_36 0
x5_37 0
x5_38 0
x5_39 0
x5_40 0
x5_41 0
x5_42 0
x5_43 0
x5_44 0
x5_45 0
x5_46 0
x5_47 0
x5_48 0
x5_49 0
x5_50 0
x5_51 0
x5_52 0
x5_53 0
x5_54 0
x5_55 0
x5_56 0
x5_57 0
x5_58 0
x5_59 0
x5_60 0
x5_61 0
x5_62 0
x5_63 0
x5_64 0
x5_65 0
x5_66 0
x5_67 0
x5_68 0
x5_69 0
x5_70 0
x5_71 0
x5_72 0
x5_73 0
x5_74 0
x5_75 0
x5_76 0
x6_7 1
x6_8 1
x6_9 1
x6_10 0
x6_11 0
x6_12 0
x6_13 0
x6_14 0
x6_15 0
x6_16 0
x6_17 0
x6_18 0
x6_19 0
x6_20 0
x6_21 0
x6_22 0
x6_23 0
x6_24 0
x6_25 0
x6_26 0
x6_27 0
x6_28 0
x6_29 0
x6_30 0
x6_31 0
x6_32 0
x6_33 0
x6_34 0
x6_35 0
x6_36 0
x6_37 0
x6_38 0
x6_39 0
x6_40 0
x6_41 0
x6_42 0
x6_43 0
x6_44 0
x6_45 0
x6_46 0
x6_47 0
x6_48 0
x6_49 0
x6_50 0
x6_51 0
x6_52 0
x6_53 0
x6_54 0
x6_55 0
x6_56 0
x6_57 0
x6_58 0
x6_59 0
x6_60 0
x6_61 0
x6_62 0
x6_63 0
x6_64 0
x6_65 0
x6_66 0
x6_67 0
x6_68 0
x6_69 0
x6_70 0
x6_71 0
x6_72 0
x6_73 0
x6_74 0
x6_75 0
x6_76 0
x7_8 1
x7_9 1
x7_10 0
x7_11 0
x7_12 0
x7_13 0
x7_14 0
x7_15 0
x7_16 0
x7_17 0
x7_18 0
x7_19 0
x7_20 0
x7_21 0
x7_22 0
x7_23 0
x7_24 0
x7_25 0
x7_26 0
x7_27 0
x7_28 0
x7_29 0
x7_30 0
x7_31 0
x7_32 0
x7_33 0
x7_34 0
x7_35 0
x7_36 0
x7_37 0
x7_38 0
x7_39 0
x7_40 0
x7_41 0
x7_42 0
x7_43 0
x7_44 0
x7_45 0
x7_46 0
x7_47 0
x7_48 0
x7_49 0
x7_50 0
x7_51 0
x7_52 0
x7_53 0
x7_54 0
x7_55 0
x7_56 0
x7_57 0
x7_58 0
x7_59 0
x7_60 0
x7_61 0
x7_62 0
x7_63 0
x7_64 0
x7_65 0
x7_66 0
x7_67 0
x7_68 0
x7_69 0
x7_70 0
x7_71 0
x7_72 0
x7_73 0
x7_74 0
x7_75 0
x7_76 0
x8_9 1
x8_10 0
x8_11 0
x8_12 0
x8_13 0
x8_14 0
x8_15 0
x8_16 0
x8_17 0
x8_18 0
x8_19 0
x8_20 0
x8_21 0
x8_22 0
x8_23 0
x8_24 0
x8_25 0
x8_26 0
x8_27 0
x8_28 0
x8_29 0
x8_30 0
x8_31 0
x8_32 0
x8_33 0
x8_34 0
x8_35 0
x8_36 0
x8_37 0
x8_38 0
x8_39 0
x8_40 0
x8_41 0
x8_42 0
x8_43 0
x8_44 0
x8_45 0
x8_46 0
x8_47 0
x8_48 0
x8_49 0
x8_50 0
x8_51 0
x8_52 0
x8_53 0
x8_54 0
x8_55 0
x8_56 0
x8_57 0
x8_58 0
x8_59 0
x8_60 0
x8_61 0
x8_62 0
x8_63 0
x8_64 0
x8_65 0
x8_66 0
x8_67 0
x8_68 0
x8_69 0
x8_70 0
x8_71 0
x8_72 0
x8_73 0
x8_74 0
x8_75 0
x8_76 0
x9_10 0
x9_11 0
x9_12 0
x9_13 0
x9_14 0
x9_15 0
x9_16 0
x9_17 0
x9_18 0
x9_19 0
x9_20 0
x9_21 0
x9_22 0
x9_23 0
x9_24 0
x9_25 0
x9_26 0
x9_27 0
x9_28 0
x9_29 0
x9_30 0
x9_31 0
x9_32 0
x9_33 0
x9_34 0
x9_35 0
x9_36 0
x9_37 0
x9_38 0
x9_39 0
x9_40 0
x9_41 0
x9_42 0
x9_43 0
x9_44 0
x9_45 0
x9_46 0
x9_47 0
x9_48 0
x9_49 0
x9_50 0
x9_51 0
x9_52 0
x9_53 0
x9_54 0
x9_55 0
x9_56 0
x9_57 0
x9_58 0
x9_59 0
x9_60 0
x9_61 0
x9_62 0
x9_63 0
x9_64 0
x9_65 0
x9_66 0
x9_67 0
x9_68 0
x9_69 0
x9_70 0
x9_71 0
x9_72 0
x9_73 0
x9_74 0
x9_75 0
x9_76 0
x10_11 1
x10_12 0
x10_13 1
x10_14 1
x10_15 1
x10_16 0
x10_17 0
x10_18 0
x10_19 0
x10_20 0
x10_21 0
x10_22 0
x10_23 0
x10_24 0
x10_25 0
x10_26 0
x10_27 0
x10_28 1
x10_29 1
x10_30 0
x10_31 0
x10_32 1
x10_33 1
x10_34 1
x10_35 1
x10_36 1
x10_37 1
x10_38 1
x10_39 0
x10_40 0
x10_41 0
x10_42 0
x10_43 0
x10_44 1
x10_45 1
x10_46 0
x10_47 0
x10_48 0
x10_49 0
x10_50 0
x10_51 0
x10_52 0
x10_53 0
x10_54 0
x10_55 0
x10_56 0
x10_57 0
x10_58 0
x10_59 0
x10_60 0
x10_61 0
x10_62 0
x10_63 0
x10_64 0
x10_65 0
x10_66 0
x10_67 0
x10_68 0
x10_69 0
x10_70 0
x10_71 0
x10_72 0
x10_73 0
x10_74 0
x10_75 0
x10_76 0
x11_12 0
x11_13 1
x11_14 1
x11_15 1
x11_16 0
x11_17 0
x11_18 0
x11_19 0
x11_20 0
x11_21 0
x11_22 0
x11_23 0
x11_24 0
x11_25 0
x11_26 0
x11_27 0
x11_28 1
x11_29 1
x11_30 0
x11_31 0
x11_32 1
x11_33 1
x11_34 1
x11_35 1
x11_36 1
x11_37 1
x11_38 1
x11_39 0
x11_40 0
x11_41 0
x11_42 0
x11_43 0
x11_44 1
x11_45 1
x11_46 0
x11_47 0
x11_48 0
x11_49 0
x11_50 0
x11_51 0
x11_52 0
x11_53 0
x11_54 0
x11_55 0
x11_56 0
x11_57 0
x11_58 0
x11_59 0
x11_60 0
x11_61 0
x11_62 0
x11_63 0
x11_64 0
x11_65 0
x11_66 0
x11_67 0
x11_68 0
x11_69 0
x11_70 0
x11_71 0
x11_72 0
x11_73 0
x11_74 0
x11_75 0
x11_76 0
x12_13 0
x12_14 0
x12_15 0
x12_16 1
x12_17 1
x12_18 1
x12_19 1
x12_20 1
x12_21 1
x12_22 1
x12_23 1
x12_24 0
x12_25 0
x12_26 0
x12_27 0
x12_28 0
x12_29 0
x12_30 1
x12_31 1
x12_32 0
x12_33 0
x12_34 0
x12_35 0
x12_36 0
x12_37 0
x12_38 0
x12_39 0
x12_40 0
x12_41 0
x12_42 0
x12_43 0
x12_44 0
x12_45 0
x12_46 0
x12_47 0
x12_48 0
x12_49 0
x12_50 0
x12_51 0
x12_52 0
x12_53 0
x12_54 0
x12_55 0
x12_56 0
x12_57 0
x12_58 0
x12_59 0
x12_60 0
x12_61 0
x12_62 0
x12_63 0
x12_64 0
x12_65 0
x12_66 0
x12_67 0
x12_68 0
x12_69 0
x12_70 0
x12_71 0
x12_72 0
x12_73 0
x12_74 0
x12_75 0
x12_76 0
x13_14 1
x13_15 1
x13_16 0
x13_17 0
x13_18 0
x13_19 0
x13_20 0
x13_21 0
x13_22 0
x13_23 0
x13_24 0
x13_25 0
x13_26 0
x13_27 0
x13_28 1
x13_29 1
x13_30 0
x13_31 0
x13_32 1
x13_33 1
x13_34 1
x13_35 1
x13_36 1
x13_37 1
x13_38 1
x13_39 0
x13_40 0
x13_41 0
x13_42 0
x13_43 0
x13_44 1
x13_45 1
x13_46 0
x13_47 0
x13_48 0
x13_49 0
x13_50 0
x13_51 0
x13_52 0
x13_53 0
x13_54 0
x13_55 0
x13_56 0
x13_57 0
x13_58 0
x13_59 0
x13_60 0
x13_61 0
x13_62 0
x13_63 0
x13_64 0
x13_65 0
x13_66 0
x13_67 0
x13_68 0
x13_69 0
x13_70 0
x13_71 0
x13_72 0
x13_73 0
x13_74 0
x13_75 0
x13_76 0
x14_15 1
x14_16 0
x14_17 0
x14_18 0
x14_19 0
x14_20 0
x14_21 0
x14_22 0
x14_23 0
x14_24 0
x14_25 0
x14_26 0
x14_27 0
x14_28 1
x14_29 1
x14_30 0
x14_31 0
x14_32 1
x14_33 1
x14_34 1
x14_35 1
x14_36 1
x14_37 1
x14_38 1
x14_39 0
x14_40 0
x14_41 0
x14_42 0
x14_43 0
x14_44 1
x14_45 1
x14_46 0
x14_47 0
x14_48 0
x14_49 0
x14_50 0
x14_51 0
x14_52 0
x14_53 0
x14_54 0
x14_55 0
x14_56 0
x14_57 0
x14_58 0
x14_59 0
x14_60 0
x14_61 0
x14_62 0
x14_63 0
x14_64 0
x14_65 0
x14_66 0
x14_67 0
x14_68 0
x14_69 0
x14_70 0
x14_71 0
x14_72 0
x14_73 0
x14_74 0
x14_75 0
x14_76 0
x15_16 0
x15_17 0
x15_18 0
x15_19 0
x15_20 0
x15_21 0
x15_22 0
x15_23 0
x15_24 0
x15_25 0
x15_26 0
x15_27 0
x15_28 1
x15_29 1
x15_30 0
x15_31 0
x15_32 1
x15_33 1
x15_34 1
x15_35 1
x15_36 1
x15_37 1
x15_38 1
x15_39 0
x15_40 0
x15_41 0
x15_42 0
x15_43 0
x15_44 1
x15_45 1
x15_46 0
x15_47 0
x15_48 0
x15_49 0
x15_50 0
x15_51 0
x15_52 0
x15_53 0
x15_54 0
x15_55 0
x15_56 0
x15_57 0
x15_58 0
x15_59 0
x15_60 0
x15_61 0
x15_62 0
x15_63 0
x15_64 0
x15_65 0
x15_66 0
x15_67 0
x15_68 0
x15_69 0
x15_70 0
x15_71 0
x15_72 0
x15_73 0
x15_74 0
x15_75 0
x15_76 0
x16_17 1
x16_18 1
x16_19 1
x16_20 1
x16_21 1
x16_22 1
x16_23 1
x16_24 0
x16_25 0
x16_26 0
x16_27 0
x16_28 0
x16_29 0
x16_30 1
x16_31 1
x16_32 0
x16_33 0
x16_34 0
x16_35 0
x16_36 0
x16_37 0
x16_38 0
x16_39 0
x16_40 0
x16_41 0
x16_42 0
x16_43 0
x16_44 0
x16_45 0
x16_46 0
x16_47 0
x16_48 0
x16_49 0
x16_50 0
x16_51 0
x16_52 0
x16_53 0
x16_54 0
x16_55 0
x16_56 0
x16_57 0
x16_58 0
x16_59 0
x16_60 0
x16_61 0
x16_62 0
x16_63 0
x16_64 0
x16_65 0
x16_66 0
x16_67 0
x16_68 0
x16_69 0
x16_70 0
x16_71 0
x16_72 0
x16_73 0
x16_74 0
x16_75 0
x16_76 0
x17_18 1
x17_19 1
x17_20 1
x17_21 1
x17_22 1
x17_23 1
x17_24 0
x17_25 0
x17_26 0
x17_27 0
x17_28 0
x17_29 0
x17_30 1
x17_31 1
x17_32 0
x17_33 0
x17_34 0
x17_35 0
x17_36 0
x17_37 0
x17_38 0
x17_39 0
x17_40 0
x17_41 0
x17_42 0
x17_43 0
x17_44 0
x17_45 0
x17_46 0
x17_47 0
x17_48 0
x17_49 0
x17_50 0
x17_51 0
x17_52 0
x17_53 0
x17_54 0
x17_55 0
x17_56 0
x17_57 0
x17_58 0
x17_59 0
x17_60 0
x17_61 0
x17_62 0
x17_63 0
x17_64 0
x17_65 0
x17_66 0
x17_67 0
x17_68 0
x17_69 0
x17_70 0
x17_71 0
x17_72 0
x17_73 0
x17_74 0
x17_75 0
x17_76 0
x18_19 1
x18_20 1
x18_21 1
x18_22 1
x18_23 1
x18_24 0
x18_25 0
x18_26 0
x18_27 0
x18_28 0
x18_29 0
x18_30 1
x18_31 1
x18_32 0
x18_33 0
x18_34 0
x18_35 0
x18_36 0
x18_37 0
x18_38 0
x18_39 0
x18_40 0
x18_41 0
x18_42 0
x18_43 0
x18_44 0
x18_45 0
x18_46 0
x18_47 0
x18_48 0
x18_49 0
x18_50 0
x18_51 0
x18_52 0
x18_53 0
x18_54 0
x18_55 0
x18_56 0
x18_57 0
x18_58 0
x18_59 0
x18_60 0
x18_61 0
x18_62 0
x18_63 0
x18_64 0
x18_65 0
x18_66 0
x18_67 0
x18_68 0
x18_69 0
x18_70 0
x18_71 0
x18_72 0
x18_73 0
x18_74 0
x18_75 0
x18_76 0
x19_20 1
x19_21 1
x19_22 1
x19_23 1
x19_24 0
x19_25 0
x19_26 0
x19_27 0
x19_28 0
x19_29 0
x19_30 1
x19_31 1
x19_32 0
x19_33 0
x19_34 0
x19_35 0
x19_36 0
x19_37 0
x19_38 0
x19_39 0
x19_40 0
x19_41 0
x19_42 0
x19_43 0
x19_44 0
x19_45 0
x19_46 0
x19_47 0
x19_48 0
x19_49 0
x19_50 0
x19_51 0
x19_52 0
x19_53 0
x19_54 0
x19_55 0
x19_56 0
x19_57 0
x19_58 0
x19_59 0
x19_60 0
x19_61 0
x19_62 0
x19_63 0
x19_64 0
x19_65 0
x19_66 0
x19_67 0
x19_68 0
x19_69 0
x19_70 0
x19_71 0
x19_72 0
x19_73 0
x19_74 0
x19_75 0
x19_76 0
x20_21 1
x20_22 1
x20_23 1
x20_24 0
x20_25 0
x20_26 0
x20_27 0
x20_28 0
x20_29 0
x20_30 1
x20_31 1
x20_32 0
x20_33 0
x20_34 0
x20_35 0
x20_36 0
x20_37 0
x20_38 0
x20_39 0
x20_40 0
x20_41 0
x20_42 0
x20_43 0
x20_44 0
x20_45 0
x20_46 0
x20_47 0
x20_48 0
x20_49 0
x20_50 0
x20_51 0
x20_52 0
x20_53 0
x20_54 0
x20_55 0
x20_56 0
x20_57 0
x20_58 0
x20_59 0
x20_60 0
x20_61 0
x20_62 0
x20_63 0
x20_64 0
x20_65 0
x20_66 0
x20_67 0
x20_68 0
x20_69 0
x20_70 0
x20_71 0
x20_72 0
x20_73 0
x20_74 0
x20_75 0
x20_76 0
x21_22 1
x21_23 1
x21_24 0
x21_25 0
x21_26 0
x21_27 0
x21_28 0
x21_29 0
x21_30 1
x21_31 1
x21_32 0
x21_33 0
x21_34 0
x21_35 0
x21_36 0
x21_37 0
x21_38 0
x21_39 0
x21_40 0
x21_41 0
x21_42 0
x21_43 0
x21_44 0
x21_45 0
x21_46 0
x21_47 0
x21_48 0
x21_49 0
x21_50 0
x21_51 0
x21_52 0
x21_53 0
x21_54 0
x21_55 0
x21_56 0
x21_57 0
x21_58 0
x21_59 0
x21_60 0
x21_61 0
x21_62 0
x21_63 0
x21_64 0
x21_65 0
x21_66 0
x21_67 0
x21_68 0
x21_69 0
x21_70 0
x21_71 0
x21_72 0
x21_73 0
x21_74 0
x21_75 0
x21_76 0
x22_23 1
x22_24 0
x22_25 0
x22_26 0
x22_27 0
x22_28 0
x22_29 0
x22_30 1
x22_31 1
x22_32 0
x22_33 0
x22_34 0
x22_35 0
x22_36 0
x22_37 0
x22_38 0
x22_39 0
x22_40 0
x22_41 0
x22_42 0
x22_43 0
x22_44 0
x22_45 0
x22_46 0
x22_47 0
x22_48 0
x22_49 0
x22_50 0
x22_51 0
x22_52 0
x22_53 0
x22_54 0
x22_55 0
x22_56 0
x22_57 0
x22_58 0
x22_59 0
x22_60 0
x22_61 0
x22_62 0
x22_63 0
x22_64 0
x22_65 0
x22_66 0
x22_67 0
x22_68 0
x22_69 0
x22_70 0
x22_71 0
x22_72 0
x22_73 0
x22_74 0
x22_75 0
x22_76 0
x23_24 0
x23_25 0
x23_26 0
x23_27 0
x23_28 0
x23_29 0
x23_30 1
x23_31 1
x23_32 0
x23_33 0
x23_34 0
x23_35 0
x23_36 0
x23_37 0
x23_38 0
x23_39 0
x23_40 0
x23_41 0
x23_42 0
x23_43 0
x23_44 0
x23_45 0
x23_46 0
x23_47 0
x23_48 0
x23_49 0
x23_50 0
x23_51 0
x23_52 0
x23_53 0
x23_54 0
x23_55 0
x23_56 0
x23_57 0
x23_58 0
x23_59 0
x23_60 0
x23_61 0
x23_62 0
x23_63 0
x23_64 0
x23_65 0
x23_66 0
x23_67 0
x23_68 0
x23_69 0
x23_70 0
x23_71 0
x23_72 0
x23_73 0
x23_74 0
x23_75 0
x23_76 0
x24_25 1
x24_26 0
x24_27 1
x24_28 0
x24_29 0
x24_30 0
x24_31 0
x24_32 0
x24_33 0
x24_34 0
x24_35 0
x24_36 0
x24_37 0
x24_38 0
x24_39 0
x24_40 1
x24_41 1
x24_42 1
x24_43 0
x24_44 0
x24_45 0
x24_46 0
x24_47 0
x24_48 0
x24_49 0
x24_50 0
x24_51 0
x24_52 0
x24_53 0
x24_54 0
x24_55 0
x24_56 0
x24_57 0
x24_58 0
x24_59 0
x24_60 0
x24_61 0
x24_62 0
x24_63 0
x24_64 0
x24_65 0
x24_66 0
x24_67 0
x24_68 1
x24_69 1
x24_70 1
x24_71 1
x24_72 0
x24_73 0
x24_74 0
x24_75 1
x24_76 0
x25_26 0
x25_27 1
x25_28 0
x25_29 0
x25_30 0
x25_31 0
x25_32 0
x25_33 0
x25_34 0
x25_35 0
x25_36 0
x25_37 0
x25_38 0
x25_39 0
x25_40 1
x25_41 1
x25_42 1
x25_43 0
x25_44 0
x25_45 0
x25_46 0
x25_47 0
x25_48 0
x25_49 0
x25_50 0
x25_51 0
x25_52 0
x25_53 0
x25_54 0
x25_55 0
x25_56 0
x25_57 0
x25_58 0
x25_59 0
x25_60 0
x25_61 0
x25_62 0
x25_63 0
x25_64 0
x25_65 0
x25_66 0
x25_67 0
x25_68 1
x25_69 1
x25_70 1
x25_71 1
x25_72 0
x25_73 0
x25_74 0
x25_75 1
x25_76 0
x26_27 0
x26_28 0
x26_29 0
x26_30 0
x26_31 0
x26_32 0
x26_33 0
x26_34 0
x26_35 0
x26_36 0
x26_37 0
x26_38 0
x26_39 1
x26_40 0
x26_41 0
x26_42 0
x26_43 1
x26_44 0
x26_45 0
x26_46 0
x26_47 0
x26_48 0
x26_49 1
x26_50 1
x26_51 1
x26_52 1
x26_53 1
x26_54 1
x26_55 1
x26_56 1
x26_57 0
x26_58 0
x26_59 0
x26_60 0
x26_61 0
x26_62 0
x26_63 0
x26_64 0
x26_65 0
x26_66 0
x26_67 0
x26_68 0
x26_69 0
x26_70 0
x26_71 0
x26_72 1
x26_73 0
x26_74 0
x26_75 0
x26_76 0
x27_28 0
x27_29 0
x27_30 0
x27_31 0
x27_32 0
x27_33 0
x27_34 0
x27_35 0
x27_36 0
x27_37 0
x27_38 0
x27_39 0
x27_40 1
x27_41 1
x27_42 1
x27_43 0
x27_44 0
x27_45 0
x27_46 0
x27_47 0
x27_48 0
x27_49 0
x27_50 0
x27_51 0
x27_52 0
x27_53 0
x27_54 0
x27_55 0
x27_56 0
x27_57 0
x27_58 0
x27_59 0
x27_60 0
x27_61 0
x27_62 0
x27_63 0
x27_64 0
x27_65 0
x27_66 0
x27_67 0
x27_68 1
x27_69 1
x27_70 1
x27_71 1
x27_72 0
x27_73 0
x27_74 0
x27_75 1
x27_76 0
x28_29 1
x28_30 0
x28_31 0
x28_32 1
x28_33 1
x28_34 1
x28_35 1
x28_36 1
x28_37 1
x28_38 1
x28_39 0
x28_40 0
x28_41 0
x28_42 0
x28_43 0
x28_44 1
x28_45 1
x28_46 0
x28_47 0
x28_48 0
x28_49 0
x28_50 0
x28_51 0
x28_52 0
x28_53 0
x28_54 0
x28_55 0
x28_56 0
x28_57 0
x28_58 0
x28_59 0
x28_60 0
x28_61 0
x28_62 0
x28_63 0
x28_64 0
x28_65 0
x28_66 0
x28_67 0
x28_68 0
x28_69 0
x28_70 0
x28_71 0
x28_72 0
x28_73 0
x28_74 0
x28_75 0
x28_76 0
x29_30 0
x29_31 0
x29_32 1
x29_33 1
x29_34 1
x29_35 1
x29_36 1
x29_37 1
x29_38 1
x29_39 0
x29_40 0
x29_41 0
x29_42 0
x29_43 0
x29_44 1
x29_45 1
x29_46 0
x29_47 0
x29_48 0
x29_49 0
x29_50 0
x29_51 0
x29_52 0
x29_53 0
x29_54 0
x29_55 0
x29_56 0
x29_57 0
x29_58 0
x29_59 0
x29_60 0
x29_61 0
x29_62 0
x29_63 0
x29_64 0
x29_65 0
x29_66 0
x29_67 0
x29_68 0
x29_69 0
x29_70 0
x29_71 0
x29_72 0
x29_73 0
x29_74 0
x29_75 0
x29_76 0
x30_31 1
x30_32 0
x30_33 0
x30_34 0
x30_35 0
x30_36 0
x30_37 0
x30_38 0
x30_39 0
x30_40 0
x30_41 0
x30_42 0
x30_43 0
x30_44 0
x30_45 0
x30_46 0
x30_47 0
x30_48 0
x30_49 0
x30_50 0
x30_51 0
x30_52 0
x30_53 0
x30_54 0
x30_55 0
x30_56 0
x30_57 0
x30_58 0
x30_59 0
x30_60 0
x30_61 0
x30_62 0
x30_63 0
x30_64 0
x30_65 0
x30_66 0
x30_67 0
x30_68 0
x30_69 0
x30_70 0
x30_71 0
x30_72 0
x30_73 0
x30_74 0
x30_75 0
x30_76 0
x31_32 0
x31_33 0
x31_34 0
x31_35 0
x31_36 0
x31_37 0
x31_38 0
x31_39 0
x31_40 0
x31_41 0
x31_42 0
x31_43 0
x31_44 0
x31_45 0
x31_46 0
x31_47 0
x31_48 0
x31_49 0
x31_50 0
x31_51 0
x31_52 0
x31_53 0
x31_54 0
x31_55 0
x31_56 0
x31_57 0
x31_58 0
x31_59 0
x31_60 0
x31_61 0
x31_62 0
x31_63 0
x31_64 0
x31_65 0
x31_66 0
x31_67 0
x31_68 0
x31_69 0
x31_70 0
x31_71 0
x31_72 0
x31_73 0
x31_74 0
x31_75 0
x31_76 0
x32_33 1
x32_34 1
x32_35 1
x32_36 1
x32_37 1
x32_38 1
x32_39 0
x32_40 0
x32_41 0
x32_42 0
x32_43 0
x32_44 1
x32_45 1
x32_46 0
x32_47 0
x32_48 0
x32_49 0
x32_50 0
x32_51 0
x32_52 0
x32_53 0
x32_54 0
x32_55 0
x32_56 0
x32_57 0
x32_58 0
x32_59 0
x32_60 0
x32_61 0
x32_62 0
x32_63 0
x32_64 0
x32_65 0
x32_66 0
x32_67 0
x32_68 0
x32_69 0
x32_70 0
x32_71 0
x32_72 0
x32_73 0
x32_74 0
x32_75 0
x32_76 0
x33_34 1
x33_35 1
x33_36 1
x33_37 1
x33_38 1
x33_39 0
x33_40 0
x33_41 0
x33_42 0
x33_43 0
x33_44 1
x33_45 1
x33_46 0
x33_47 0
x33_48 0
x33_49 0
x33_50 0
x33_51 0
x33_52 0
x33_53 0
x33_54 0
x33_55 0
x33_56 0
x33_57 0
x33_58 0
x33_59 0
x33_60 0
x33_61 0
x33_62 0
x33_63 0
x33_64 0
x33_65 0
x33_66 0
x33_67 0
x33_68 0
x33_69 0
x33_70 0
x33_71 0
x33_72 0
x33_73 0
x33_74 0
x33_75 0
x33_76 0
x34_35 1
x34_36 1
x34_37 1
x34_38 1
x34_39 0
x34_40 0
x34_41 0
x34_42 0
x34_43 0
x34_44 1
x34_45 1
x34_46 0
x34_47 0
x34_48 0
x34_49 0
x34_50 0
x34_51 0
x34_52 0
x34_53 0
x34_54 0
x34_55 0
x34_56 0
x34_57 0
x34_58 0
x34_59 0
x34_60 0
x34_61 0
x34_62 0
x34_63 0
x34_64 0
x34_65 0
x34_66 0
x34_67 0
x34_68 0
x34_69 0
x34_70 0
x34_71 0
x34_72 0
x34_73 0
x34_74 0
x34_75 0
x34_76 0
x35_36 1
x35_37 1
x35_38 1
x35_39 0
x35_40 0
x35_41 0
x35_42 0
x35_43 0
x35_44 1
x35_45 1
x35_46 0
x35_47 0
x35_48 0
x35_49 0
x35_50 0
x35_51 0
x35_52 0
x35_53 0
x35_54 0
x35_55 0
x35_56 0
x35_57 0
x35_58 0
x35_59 0
x35_60 0
x35_61 0
x35_62 0
x35_63 0
x35_64 0
x35_65 0
x35_66 0
x35_67 0
x35_68 0
x35_69 0
x35_70 0
x35_71 0
x35_72 0
x35_73 0
x35_74 0
x35_75 0
x35_76 0
x36_37 1
x36_38 1
x36_39 0
x36_40 0
x36_41 0
x36_42 0
x36_43 0
x36_44 1
x36_45 1
x36_46 0
x36_47 0
x36_48 0
x36_49 0
x36_50 0
x36_51 0
x36_52 0
x36_53 0
x36_54 0
x36_55 0
x36_56 0
x36_57 0
x36_58 0
x36_59 0
x36_60 0
x36_61 0
x36_62 0
x36_63 0
x36_64 0
x36_65 0
x36_66 0
x36_67 0
x36_68 0
x36_69 0
x36_70 0
x36_71 0
x36_72 0
x36_73 0
x36_74 0
x36_75 0
x36_76 0
x37_38 1
x37_39 0
x37_40 0
x37_41 0
x37_42 0
x37_43 0
x37_44 1
x37_45 1
x37_46 0
x37_47 0
x37_48 0
x37_49 0
x37_50 0
x37_51 0
x37_52 0
x37_53 0
x37_54 0
x37_55 0
x37_56 0
x37_57 0
x37_58 0
x37_59 0
x37_60 0
x37_61 0
x37_62 0
x37_63 0
x37_64 0
x37_65 0
x37_66 0
x37_67 0
x37_68 0
x37_69 0
x37_70 0
x37_71 0
x37_72 0
x37_73 0
x37_74 0
x37_75 0
x37_76 0
x38_39 0
x38_40 0
x38_41 0
x38_42 0
x38_43 0
x38_44 1
x38_45 1
x38_46 0
x38_47 0
x38_48 0
x38_49 0
x38_50 0
x38_51 0
x38_52 0
x38_53 0
x38_54 0
x38_55 0
x38_56 0
x38_57 0
x38_58 0
x38_59 0
x38_60 0
x38_61 0
x38_62 0
x38_63 0
x38_64 0
x38_65 0
x38_66 0
x38_67 0
x38_68 0
x38_69 0
x38_70 0
x38_71 0
x38_72 0
x38_73 0
x38_74 0
x38_75 0
x38_76 0
x39_40 0
x39_41 0
x39_42 0
x39_43 1
x39_44 0
x39_45 0
x39_46 0
x39_47 0
x39_48 0
x39_49 1
x39_50 1
x39_51 1
x39_52 1
x39_53 1
x39_54 1
x39_55 1
x39_56 1
x39_57 0
x39_58 0
x39_59 0
x39_60 0
x39_61 0
x39_62 0
x39_63 0
x39_64 0
x39_65 0
x39_66 0
x39_67 0
x39_68 0
x39_69 0
x39_70 0
x39_71 0
x39_72 1
x39_73 0
x39_74 0
x39_75 0
x39_76 0
x40_41 1
x40_42 1
x40_43 0
x40_44 0
x40_45 0
x40_46 0
x40_47 0
x40_48 0
x40_49 0
x40_50 0
x40_51 0
x40_52 0
x40_53 0
x40_54 0
x40_55 0
x40_56 0
x40_57 0
x40_58 0
x40_59 0
x40_60 0
x40_61 0
x40_62 0
x40_63 0
x40_64 0
x40_65 0
x40_66 0
x40_67 0
x40_68 1
x40_69 1
x40_70 1
x40_71 1
x40_72 0
x40_73 0
x40_74 0
x40_75 1
x40_76 0
x41_42 1
x41_43 0
x41_44 0
x41_45 0
x41_46 0
x41_47 0
x41_48 0
x41_49 0
x41_50 0
x41_51 0
x41_52 0
x41_53 0
x41_54 0
x41_55 0
x41_56 0
x41_57 0
x41_58 0
x41_59 0
x41_60 0
x41_61 0
x41_62 0
x41_63 0
x41_64 0
x41_65 0
x41_66 0
x41_67 0
x41_68 1
x41_69 1
x41_70 1
x41_71 1
x41_72 0
x41_73 0
x41_74 0
x41_75 1
x41_76 0
x42_43 0
x42_44 0
x42_45 0
x42_46 0
x42_47 0
x42_48 0
x42_49 0
x42_50 0
x42_51 0
x42_52 0
x42_53 0
x42_54 0
x42_55 0
x42_56 0
x42_57 0
x42_58 0
x42_59 0
x42_60 0
x42_61 0
x42_62 0
x42_63 0
x42_64 0
x42_65 0
x42_66 0
x42_67 0
x42_68 1
x42_69 1
x42_70 1
x42_71 1
x42_72 0
x42_73 0
x42_74 0
x42_75 1
x42_76 0
x43_44 0
x43_45 0
x43_46 0
x43_47 0
x43_48 0
x43_49 1
x43_50 1
x43_51 1
x43_52 1
x43_53 1
x43_54 1
x43_55 1
x43_56 1
x43_57 0
x43_58 0
x43_59 0
x43_60 0
x43_61 0
x43_62 0
x43_63 0
x43_64 0
x43_65 0
x43_66 0
x43_67 0
x43_68 0
x43_69 0
x43_70 0
x43_71 0
x43_72 1
x43_73 0
x43_74 0
x43_75 0
x43_76 0
x44_45 1
x44_46 0
x44_47 0
x44_48 0
x44_49 0
x44_50 0
x44_51 0
x44_52 0
x44_53 0
x44_54 0
x44_55 0
x44_56 0
x44_57 0
x44_58 0
x44_59 0
x44_60 0
x44_61 0
x44_62 0
x44_63 0
x44_64 0
x44_65 0
x44_66 0
x44_67 0
x44_68 0
x44_69 0
x44_70 0
x44_71 0
x44_72 0
x44_73 0
x44_74 0
x44_75 0
x44_76 0
x45_46 0
x45_47 0
x45_48 0
x45_49 0
x45_50 0
x45_51 0
x45_52 0
x45_53 0
x45_54 0
x45_55 0
x45_56 0
x45_57 0
x45_58 0
x45_59 0
x45_60 0
x45_61 0
x45_62 0
x45_63 0
x45_64 0
x45_65 0
x45_66 0
x45_67 0
x45_68 0
x45_69 0
x45_70 0
x45_71 0
x45_72 0
x45_73 0
x45_74 0
x45_75 0
x45_76 0
x46_47 1
x46_48 1
x46_49 0
x46_50 0
x46_51 0
x46_52 0
x46_53 0
x46_54 0
x46_55 0
x46_56 0
x46_57 1
x46_58 1
x46_59 1
x46_60 1
x46_61 1
x46_62 1
x46_63 1
x46_64 1
x46_65 1
x46_66 1
x46_67 1
x46_68 0
x46_69 0
x46_70 0
x46_71 0
x46_72 0
x46_73 1
x46_74 1
x46_75 0
x46_76 1
x47_48 1
x47_49 0
x47_50 0
x47_51 0
x47_52 0
x47_53 0
x47_54 0
x47_55 0
x47_56 0
x47_57 1
x47_58 1
x47_59 1
x47_60 1
x47_61 1
x47_62 1
x47_63 1
x47_64 1
x47_65 1
x47_66 1
x47_67 1
x47_68 0
x47_69 0
x47_70 0
x47_71 0
x47_72 0
x47_73 1
x47_74 1
x47_75 0
x47_76 1
x48_49 0
x48_50 0
x48_51 0
x48_52 0
x48_53 0
x48_54 0
x48_55 0
x48_56 0
x48_57 1
x48_58 1
x48_59 1
x48_60 1
x48_61 1
x48_62 1
x48_63 1
x48_64 1
x48_65 1
x48_66 1
x48_67 1
x48_68 0
x48_69 0
x48_70 0
x48_71 0
x48_72 0
x48_73 1
x48_74 1
x48_75 0
x48_76 1
x49_50 1
x49_51 1
x49_52 1
x49_53 1
x49_54 1
x49_55 1
x49_56 1
x49_57 0
x49_58 0
x49_59 0
x49_60 0
x49_61 0
x49_62 0
x49_63 0
x49_64 0
x49_65 0
x49_66 0
x49_67 0
x49_68 0
x49_69 0
x49_70 0
x49_71 0
x49_72 1
x49_73 0
x49_74 0
x49_75 0
x49_76 0
x50_51 1
x50_52 1
x50_53 1
x50_54 1
x50_55 1
x50_56 1
x50_57 0
x50_58 0
x50_59 0
x50_60 0
x50_61 0
x50_62 0
x50_63 0
x50_64 0
x50_65 0
x50_66 0
x50_67 0
x50_68 0
x50_69 0
x50_70 0
x50_71 0
x50_72 1
x50_73 0
x50_74 0
x50_75 0
x50_76 0
x51_52 1
x51_53 1
x51_54 1
x51_55 1
x51_56 1
x51_57 0
x51_58 0
x51_59 0
x51_60 0
x51_61 0
x51_62 0
x51_63 0
x51_64 0
x51_65 0
x51_66 0
x51_67 0
x51_68 0
x51_69 0
x51_70 0
x51_71 0
x51_72 1
x51_73 0
x51_74 0
x51_75 0
x51_76 0
x52_53 1
x52_54 1
x52_55 1
x52_56 1
x52_57 0
x52_58 0
x52_59 0
x52_60 0
x52_61 0
x52_62 0
x52_63 0
x52_64 0
x52_65 0
x52_66 0
x52_67 0
x52_68 0
x52_69 0
x52_70 0
x52_71 0
x52_72 1
x52_73 0
x52_74 0
x52_75 0
x52_76 0
x53_54 1
x53_55 1
x53_56 1
x53_57 0
x53_58 0
x53_59 0
x53_60 0
x53_61 0
x53_62 0
x53_63 0
x53_64 0
x53_65 0
x53_66 0
x53_67 0
x53_68 0
x53_69 0
x53_70 0
x53_71 0
x53_72 1
x53_73 0
x53_74 0
x53_75 0
x53_76 0
x54_55 1
x54_56 1
x54_57 0
x54_58 0
x54_59 0
x54_60 0
x54_61 0
x54_62 0
x54_63 0
x54_64 0
x54_65 0
x54_66 0
x54_67 0
x54_68 0
x54_69 0
x54_70 0
x54_71 0
x54_72 1
x54_73 0
x54_74 0
x54_75 0
x54_76 0
x55_56 1
x55_57 0
x55_58 0
x55_59 0
x55_60 0
x55_61 0
x55_62 0
x55_63 0
x55_64 0
x55_65 0
x55_66 0
x55_67 0
x55_68 0
x55_69 0
x55_70 0
x55_71 0
x55_72 1
x55_73 0
x55_74 0
x55_75 0
x55_76 0
x56_57 0
x56_58 0
x56_59 0
x56_60 0
x56_61 0
x56_62 0
x56_63 0
x56_64 0
x56_65 0
x56_66 0
x56_67 0
x56_68 0
x56_69 0
x56_70 0
x56_71 0
x56_72 1
x56_73 0
x56_74 0
x56_75 0
x56_76 0
x57_58 1
x57_59 1
x57_60 1
x57_61 1
x57_62 1
x57_63 1
x57_64 1
x57_65 1
x57_66 1
x57_67 1
x57_68 0
x57_69 0
x57_70 0
x57_71 0
x57_72 0
x57_73 1
x57_74 1
x57_75 0
x57_76 1
x58_59 1
x58_60 1
x58_61 1
x58_62 1
x58_63 1
x58_64 1
x58_65 1
x58_66 1
x58_67 1
x58_68 0
x58_69 0
x58_70 0
x58_71 0
x58_72 0
x58_73 1
x58_74 1
x58_75 0
x58_76 1
x59_60 1
x59_61 1
x59_62 1
x59_63 1
x59_64 1
x59_65 1
x59_66 1
x59_67 1
x59_68 0
x59_69 0
x59_70 0
x59_71 0
x59_72 0
x59_73 1
x59_74 1
x59_75 0
x59_76 1
x60_61 1
x60_62 1
x60_63 1
x60_64 1
x60_65 1
x60_66 1
x60_67 1
x60_68 0
x60_69 0
x60_70 0
x60_71 0
x60_72 0
x60_73 1
x60_74 1
x60_75 0
x60_76 1
x61_62 1
x61_63 1
x61_64 1
x61_65 1
x61_66 1
x61_67 1
x61_68 0
x61_69 0
x61_70 0
x61_71 0
x61_72 0
x61_73 1
x61_74 1
x61_75 0
x61_76 1
x62_63 1
x62_64 1
x62_65 1
x62_66 1
x62_67 1
x62_68 0
x62_69 0
x62_70 0
x62_71 0
x62_72 0
x62_73 1
x62_74 1
x62_75 0
x62_76 1
x63_64 1
x63_65 1
x63_66 1
x63_67 1
x63_68 0
x63_69 0
x63_70 0
x63_71 0
x63_72 0
x63_73 1
x63_74 1
x63_75 0
x63_76 1
x64_65 1
x64_66 1
x64_67 1
x64_68 0
x64_69 0
x64_70 0
x64_71 0
x64_72 0
x64_73 1
x64_74 1
x64_75 0
x64_76 1
x65_66 1
x65_67 1
x65_68 0
x65_69 0
x65_70 0
x65_71 0
x65_72 0
x65_73 1
x65_74 1
x65_75 0
x65_76 1
x66_67 1
x66_68 0
x66_69 0
x66_70 0
x66_71 0
x66_72 0
x66_73 1
x66_74 1
x66_75 0
x66_76 1
x67_68 0
x67_69 0
x67_70 0
x67_71 0
x67_72 0
x67_73 1
x67_74 1
x67_75 0
x67_76 1
x68_69 1
x68_70 1
x68_71 1
x68_72 0
x68_73 0
x68_74 0
x68_75 1
x68_76 0
x69_70 1
x69_71 1
x69_72 0
x69_73 0
x69_74 0
x69_75 1
x69_76 0
x70_71 1
x70_72 0
x70_73 0
x70_74 0
x70_75 1
x70_76 0
x71_72 0
x71_73 0
x71_74 0
x71_75 1
x71_76 0
x72_73 0
x72_74 0
x72_75 0
x72_76 0
x73_74 1
x73_75 0
x73_76 1
x74_75 0
x74_76 1
x75_76 0
